(set-logic ALL)
(set-option :produce-models true)
(declare-sort BoundSet 0)
(declare-sort UnboundSet 0)
(set-option :finite-model-find true)
(declare-fun IsLarge (BoundSet) Bool)
(declare-fun IsWhite (BoundSet) Bool)
(declare-fun GrazesWater (BoundSet) Bool)
(declare-fun IsInTinyCage (BoundSet) Bool)
(assert (not (=> (exists ((a BoundSet)) (and (IsLarge a) (and (IsWhite a) (GrazesWater a)))) (exists ((d BoundSet)) (IsInTinyCage d)))))
(check-sat)
(get-model)